
Gurobi 11.0.3 (linux64) logging started Sat Nov 23 00:59:14 2024

Set parameter LogFile to value "/home/yihong/Coding/OR_SUC/SUC_results_bigM100000_thread4/case24_ieee_rts_theta0.1_epsilon0.025_gurobi_seed920000_num_gen100_N_WDR100_load_scaling_factor1_proposed_T24quadra_cost.txt"
Set parameter TimeLimit to value 3600
Gurobi Optimizer version 11.0.3 build v11.0.3rc0 (linux64 - "Ubuntu 20.04.6 LTS")

CPU model: AMD EPYC 7532 32-Core Processor, instruction set [SSE2|AVX|AVX2]
Thread count: 64 physical cores, 128 logical processors, using up to 4 threads

Optimize a model with 51942 rows, 29861 columns and 708794 nonzeros
Model fingerprint: 0x6b54d0c5
Model has 2400 quadratic constraints
Variable types: 27461 continuous, 2400 integer (2400 binary)
Coefficient statistics:
  Matrix range     [3e-04, 2e+03]
  QMatrix range    [2e-03, 8e-03]
  QLMatrix range   [7e-01, 6e+01]
  Objective range  [1e+00, 1e+00]
  Bounds range     [1e+00, 1e+00]
  RHS range        [1e+00, 9e+03]
Presolve removed 42099 rows and 12921 columns
Presolve time: 0.26s
Presolved: 9843 rows, 16940 columns, 62202 nonzeros
Presolved model has 2400 quadratic constraint(s)
Variable types: 14540 continuous, 2400 integer (2400 binary)

Root relaxation: objective 3.776369e+04, 7662 iterations, 0.19 seconds (0.27 work units)

    Nodes    |    Current Node    |     Objective Bounds      |     Work
 Expl Unexpl |  Obj  Depth IntInf | Incumbent    BestBd   Gap | It/Node Time

     0     0 37763.6926    0    -          - 37763.6926      -     -    0s
     0     0 342222.781    0  719          - 342222.781      -     -    1s
     0     0 604757.870    0  666          - 604757.870      -     -    1s
     0     0 604819.890    0  336          - 604819.890      -     -    1s
     0     0 605109.047    0  216          - 605109.047      -     -    1s
     0     0 605112.165    0  216          - 605112.165      -     -    1s
     0     0 605112.165    0  216          - 605112.165      -     -    1s
     0     0 605112.165    0  216          - 605112.165      -     -    2s
     0     2 605112.165    0  216          - 605112.165      -     -    2s
   148   192 605260.663   35  164          - 605164.667      -  26.8    5s
H  351   294                    605286.56860 605164.667  0.02%  20.5    6s
*  351   294             120    605286.56860 605164.667  0.02%  20.5    6s

Cutting planes:
  Gomory: 141
  Implied bound: 391
  MIR: 116
  Flow cover: 171
  RLT: 269

Explored 389 nodes (29567 simplex iterations) in 6.95 seconds (9.81 work units)
Thread count was 4 (of 128 available processors)

Solution count 2: 605287 605287 

Optimal solution found (tolerance 1.00e-03)
Warning: max constraint violation (1.2169e-07) exceeds tolerance
Best objective 6.052865686045e+05, best bound 6.051646666528e+05, gap 0.0201%
